JOBS = 1..5;
MACHINES = 1..4;
SPEED = 1;
time = array3d(JOBS,MACHINES,1..SPEED,[60,18,89,26,18,44,15,16,17,46,80,90,68,67,61,86,91,72,84,73]);
energy = array3d(JOBS,MACHINES,1..SPEED,[54,83,41,77,83,64,86,85,84,63,44,40,50,51,54,42,40,48,43,48]);
precedence = array2d(JOBS,MACHINES,[0,2,3,1,3,1,2,0,2,3,0,1,1,2,3,0,3,2,1,0]);
ME = 1;
TE = 117;
st_old = array2d(JOBS,MACHINES,[0,159,194,89,95,16,80,0,291,336,0,201,201,269,338,115,308,197,95,16]);
SpeedScaling = array2d(JOBS,MACHINES,[1,1,1,1,1,1,1,1,1,1,1,1,1,1,1,1,1,1,1,1]);
